\ This file has been generated by DOcplex
\ ENCODING=ISO-8859-1
\Problem name: The Whiskas Problem

Minimize
 obj: 0.013000000000 chickenPct + 0.008000000000 beefPct
Subject To
 PercentageSum: chickenPct + beefPct = 100
 ProteinRequirement: 0.100000000000 chickenPct + 0.200000000000 beefPct >= 8
 FatRequirement: 0.080000000000 chickenPct + 0.100000000000 beefPct >= 6
 FibreRequirement: 0.001000000000 chickenPct + 0.005000000000 beefPct <= 2
 SaltRequirement: 0.002000000000 chickenPct + 0.005000000000 beefPct <= 
                  0.400000000000

Bounds
End
